Route 1: 69 73 79 6 1 4 70

Route 2: 98 99 87 97 74 25

Route 3: 59 15 9 57 24

Route 4: 65 83 76 84 91

Route 5: 82 88 53 78 13 17

Route 6: 72 38 40 35 93

Route 7: 33 27 28 34 26 32

Route 8: 14 47 12 11 16 77 58

Route 9: 29 31 30 50 96

Route 10: 21 23 19 56

Route 11: 61 81 90 68 54

Route 12: 75 86 10 60 100

Route 13: 52 64 20 89

Route 14: 45 5 2 8 7 46 3 80

Route 15: 42 39 36 44 41 37 43

Route 16: 92 95 62 85 51 66

Route 17: 63 22 18 49 48

Route 18: 67 71 94 55

Vehicles: 18

Distance: 2208.51

